NAME : morphed22-2-21
COMMENT : Generated using the function morphInstances from the R-package netgen (Bossek,2015) - Number of clusters: 2 Alpha: 0.5
TYPE : TSP
DIMENSION : 22
EDGE_WEIGHT_TYPE : EUC_2D
NODE_COORD_SECTION
1 74.840645916 39.0156792771
2 19.6460284335 94.7008122359
3 67.4136317921 17.6811735103
4 16.4287466355 85.219126607
5 86.3110944207 30.02949795
6 84.5419303888 52.1850244378
7 7.2352012651 78.4093942038
8 13.0852539517 82.1350808482
9 61.5464265936 95.8160371756
10 79.0573762302 26.6335869706
11 41.4299872179 82.7310110462
12 85.7127363956 46.9682478846
13 4.6904586077 91.4997029066
14 57.8490079213 12.6027670191
15 31.7767143843 14.960309472
16 3.8833417695 75.705215462
17 51.4319702709 21.1104523847
18 39.0389690353 29.0957038956
19 36.0408678601 71.17463636
20 38.29850047 97.7600652661
21 1.5613291307 70.4646959867
22 61.6880466493 4.2897570323
EOF
